1 3 100 821120.81
1 3 200 846570.59
1 3 300 841919.80
2 3 100 1173340.46
2 3 200 1167034.68
2 3 300 1172513.65
3 3 100 1126203.53
3 3 200 1138482.95
3 3 300 1124542.34
4 3 100 1051045.25
4 3 200 1078913.48
4 3 300 1069279.10
5 3 100 967280.24
5 3 200 987483.70
5 3 300 995596.89
